200
120
99
99
98
98
97
97
96
96
95
94
94
92
92
92
90
90
89
89
89
88
88
88
87
86
86
86
85
85
85
85
85
84
84
83
82
82
81
81
81
80
80
80
79
79
79
78
78
75
75
75
74
74
74
74
73
73
72
72
71
70
69
69
68
67
67
67
67
67
67
67
66
65
65
64
63
63
63
63
63
62
62
61
60
60
60
59
59
58
58
58
58
57
57
57
56
55
55
55
54
53
52
52
52
52
52
51
51
50
50
49
49
49
49
49
47
46
46
46
46
44
44
43
43
42
42
42
41
41
41
40
39
39
37
36
36
36
35
35
35
34
34
33
33
33
32
31
31
31
30
30
29
29
29
29
28
28
28
27
26
26
25
24
23
23
23
23
23
22
22
22
22
22
20
20
19
19
19
17
15
15
14
12
11
10
9
8
7
7
5
5
5
4
4
4
3
3
1
1
1
1
